
n_res = 4;
rcap = [63, 62, 385, 413];
rtype = [1, 1, 2, 2];
n_tasks = 100;
modes =  [{1, 2, 3}, {4, 5, 6}, {7, 8, 9}, {10, 11, 12}, {13, 14, 15}, {16, 17, 18}, {19, 20, 21}, {22, 23, 24}, {25, 26, 27}, {28, 29, 30}, {31, 32, 33}, {34, 35, 36}, {37, 38, 39}, {40, 41, 42}, {43, 44, 45}, {46, 47, 48}, {49, 50, 51}, {52, 53, 54}, {55, 56, 57}, {58, 59, 60}, {61, 62, 63}, {64, 65, 66}, {67, 68, 69}, {70, 71, 72}, {73, 74, 75}, {76, 77, 78}, {79, 80, 81}, {82, 83, 84}, {85, 86, 87}, {88, 89, 90}, {91, 92, 93}, {94, 95, 96}, {97, 98, 99}, {100, 101, 102}, {103, 104, 105}, {106, 107, 108}, {109, 110, 111}, {112, 113, 114}, {115, 116, 117}, {118, 119, 120}, {121, 122, 123}, {124, 125, 126}, {127, 128, 129}, {130, 131, 132}, {133, 134, 135}, {136, 137, 138}, {139, 140, 141}, {142, 143, 144}, {145, 146, 147}, {148, 149, 150}, {151, 152, 153}, {154, 155, 156}, {157, 158, 159}, {160, 161, 162}, {163, 164, 165}, {166, 167, 168}, {169, 170, 171}, {172, 173, 174}, {175, 176, 177}, {178, 179, 180}, {181, 182, 183}, {184, 185, 186}, {187, 188, 189}, {190, 191, 192}, {193, 194, 195}, {196, 197, 198}, {199, 200, 201}, {202, 203, 204}, {205, 206, 207}, {208, 209, 210}, {211, 212, 213}, {214, 215, 216}, {217, 218, 219}, {220, 221, 222}, {223, 224, 225}, {226, 227, 228}, {229, 230, 231}, {232, 233, 234}, {235, 236, 237}, {238, 239, 240}, {241, 242, 243}, {244, 245, 246}, {247, 248, 249}, {250, 251, 252}, {253, 254, 255}, {256, 257, 258}, {259, 260, 261}, {262, 263, 264}, {265, 266, 267}, {268, 269, 270}, {271, 272, 273}, {274, 275, 276}, {277, 278, 279}, {280, 281, 282}, {283, 284, 285}, {286, 287, 288}, {289, 290, 291}, {292, 293, 294}, {295, 296, 297}, {298, 299, 300}];
succ =  [{97, 96, 94, 70, 68, 66, 61, 59, 55, 54, 53, 51, 50, 48, 47, 44, 43, 40, 33, 32, 27}, {100, 98, 96, 94, 91, 67, 66, 64, 60, 57, 50, 46, 43, 40, 38, 36, 33}, {100, 99, 98, 94, 93, 92, 90, 89, 68, 66, 65, 64, 63, 58, 57, 55, 54, 53, 51, 50, 47, 45, 36}, {96, 94, 93, 89, 88, 69, 67, 66, 64, 63, 58, 55, 53, 50, 45, 43, 36, 31}, {99, 98, 96, 95, 93, 89, 68, 67, 65, 55, 51, 50, 47, 46, 44, 42, 26}, {100, 98, 97, 96, 93, 92, 90, 88, 87, 58, 50, 42, 22}, {99, 98, 97, 91, 88, 87, 66, 65, 58, 55, 52, 46, 42, 27}, {96, 95, 94, 90, 89, 68, 66, 64, 63, 57, 53, 51, 50, 43, 33}, {100, 99, 98, 97, 95, 93, 91, 90, 89, 88, 87, 83, 79, 75, 66, 65, 59, 56, 54, 46, 42}, {97, 96, 95, 94, 89, 88, 87, 85, 83, 82, 81, 66, 54, 53, 50, 47, 46, 40}, {100, 99, 98, 96, 94, 93, 92, 91, 90, 87, 86, 83, 82, 80, 78, 69, 66, 65, 64, 63, 62, 58, 57, 51, 47}, {100, 99, 98, 97, 96, 95, 92, 91, 90, 88, 87, 85, 84, 83, 66, 65, 62, 60, 57, 47, 40}, {96, 95, 90, 89, 88, 87, 83, 82, 80, 67, 57, 53, 46, 42, 40}, {99, 97, 93, 90, 89, 88, 87, 83, 82, 79, 77, 65, 62, 61, 58, 57, 56, 54, 50, 45, 42}, {99, 96, 95, 92, 90, 86, 85, 83, 81, 80, 66, 64, 59, 58, 55, 51, 50, 47}, {97, 94, 91, 90, 89, 88, 79, 63, 57, 55, 52, 50, 46, 45}, {100, 99, 98, 96, 94, 93, 90, 89, 86, 85, 84, 79, 78, 74, 72, 67, 64, 54, 44}, {92, 91, 90, 88, 87, 86, 85, 82, 81, 80, 58, 50, 39}, {95, 94, 91, 90, 89, 87, 86, 85, 83, 82, 79, 78, 67, 64, 58, 57, 46}, {98, 97, 93, 92, 90, 89, 88, 87, 85, 84, 83, 82, 81, 80, 79, 78, 75, 74, 73, 72, 67, 63, 62}, {97, 96, 93, 89, 88, 87, 86, 85, 82, 79, 67, 64, 62, 56, 53, 50}, {99, 94, 89, 84, 75, 66, 65, 55, 54, 53, 52, 47}, {96, 95, 92, 91, 90, 89, 88, 83, 80, 79, 77, 71, 63, 50, 45}, {97, 96, 94, 93, 90, 87, 86, 85, 82, 80, 75, 72, 67, 64, 63, 62, 51}, {94, 91, 89, 88, 87, 86, 85, 83, 81, 80, 78, 77, 75, 64, 59, 47}, {97, 91, 90, 88, 87, 86, 85, 84, 80, 79, 78, 77, 75, 74, 73, 72, 63, 62, 57}, {95, 92, 90, 89, 85, 83, 82, 79, 73, 69, 67, 64, 63, 57, 56}, {96, 92, 88, 85, 83, 82, 80, 79, 74, 58, 57, 55, 50}, {98, 94, 89, 85, 83, 82, 81, 80, 79, 76, 67, 62, 50}, {94, 89, 88, 87, 84, 79, 77, 76, 75, 65, 59, 56, 54}, {98, 92, 91, 90, 86, 84, 83, 78, 77, 75, 47}, {93, 91, 90, 89, 87, 86, 85, 82, 81, 80, 78, 77, 75, 74, 73, 72, 71}, {88, 87, 84, 81, 79, 78, 75, 73, 72, 65, 62, 52}, {91, 87, 84, 83, 82, 81, 80, 79, 78, 75, 74, 73, 72, 71, 66}, {100, 95, 88, 87, 85, 83, 82, 77, 74, 73, 71, 69, 63}, {95, 87, 86, 85, 84, 81, 74, 73, 72, 62, 52}, {91, 85, 82, 81, 80, 79, 77, 76, 74, 72, 50}, {97, 90, 89, 88, 86, 79, 78, 77, 76, 73, 72, 71, 68}, {93, 89, 83, 75, 65, 64, 63, 62, 56}, {93, 86, 79, 78, 74, 73, 71, 63, 58}, {85, 83, 82, 81, 80, 78, 77, 75, 72, 71}, {94, 86, 85, 81, 78, 74, 73, 64}, {92, 86, 83, 80, 79, 71, 56}, {87, 82, 75, 73, 63, 57}, {86, 85, 84, 81, 78, 76, 73, 72}, {92, 84, 77, 76, 74, 62}, {79, 76, 73, 71, 56}, {87, 83, 82, 80, 76, 72}, {93, 92, 89, 77, 73}, {84, 78, 75, 73}, {88, 74, 73, 71}, {83, 82, 80}, {91, 76, 71}, {80, 73, 71}, {72, 62}, {74, 72}, {81, 71}, {75, 72}, {72, 71}, {93, 78}, {86, 71}, {71}, {76}, {71}, {74}, {77}, {77}, {82}, {75}, {72}, {}, {}, {}, {}, {}, {}, {}, {}, {}, {}, {}, {}, {}, {}, {}, {}, {}, {}, {}, {}, {}, {}, {}, {}, {}, {}, {}, {}, {}, {}];
n_opt = 300;
dur = [2, 6, 7, 5, 6, 10, 2, 3, 10, 3, 6, 10, 1, 6, 10, 2, 5, 6, 2, 8, 9, 8, 9, 10, 4, 6, 10, 2, 5, 6, 2, 4, 6, 4, 8, 10, 1, 7, 8, 4, 5, 8, 5, 6, 10, 5, 6, 10, 1, 6, 10, 1, 3, 9, 1, 7, 9, 2, 4, 5, 3, 3, 8, 7, 7, 8, 3, 4, 6, 7, 7, 9, 5, 8, 8, 6, 7, 10, 1, 5, 8, 5, 6, 6, 4, 6, 7, 4, 6, 8, 3, 4, 4, 1, 3, 7, 2, 2, 10, 1, 5, 10, 4, 5, 10, 5, 10, 10, 8, 9, 10, 4, 5, 8, 3, 4, 4, 2, 10, 10, 3, 7, 10, 2, 4, 10, 4, 7, 9, 5, 7, 9, 6, 8, 9, 7, 8, 9, 1, 6, 7, 1, 1, 8, 2, 5, 9, 1, 3, 7, 4, 5, 6, 1, 3, 6, 5, 6, 8, 3, 10, 10, 3, 4, 6, 3, 5, 10, 3, 7, 7, 2, 4, 7, 3, 8, 10, 2, 6, 9, 1, 8, 9, 2, 4, 8, 4, 4, 7, 5, 6, 8, 1, 1, 10, 3, 4, 7, 7, 9, 9, 1, 5, 8, 3, 6, 6, 4, 10, 10, 3, 4, 9, 5, 6, 9, 1, 2, 9, 5, 8, 10, 1, 7, 8, 2, 3, 4, 1, 3, 10, 2, 2, 7, 4, 7, 10, 1, 2, 9, 1, 8, 10, 4, 6, 6, 1, 8, 10, 7, 9, 10, 4, 7, 9, 3, 3, 8, 1, 6, 7, 3, 5, 10, 2, 4, 6, 2, 4, 5, 1, 3, 3, 5, 8, 9, 2, 8, 9, 1, 2, 6, 1, 3, 7, 4, 6, 6, 3, 4, 10, 1, 7, 10, 1, 2, 9, 1, 2, 10];
rreq = [|4, 0, 0, 4, 3, 0, 0, 0, 0, 0, 3, 2, 0, 0, 1, 0, 0, 0, 0, 4, 0, 2, 2, 0, 3, 3, 0, 0, 4, 0, 3, 2, 2, 1, 1, 1, 0, 0, 0, 4, 0, 0, 4, 0, 0, 0, 3, 3, 5, 3, 3, 0, 0, 2, 0, 1, 0, 0, 4, 0, 2, 0, 2, 0, 3, 3, 4, 4, 4, 3, 0, 2, 3, 0, 2, 0, 0, 3, 0, 0, 1, 5, 4, 3, 0, 3, 0, 0, 1, 0, 0, 0, 2, 4, 2, 0, 0, 3, 2, 5, 0, 0, 3, 3, 3, 0, 3, 0, 0, 1, 0, 0, 1, 0, 4, 3, 0, 4, 0, 4, 1, 1, 1, 3, 0, 1, 0, 0, 3, 0, 3, 0, 3, 2, 0, 0, 0, 0, 0, 4, 4, 0, 5, 0, 0, 0, 0, 2, 0, 2, 4, 2, 2, 5, 5, 0, 0, 0, 0, 0, 0, 4, 0, 0, 0, 0, 3, 3, 0, 0, 1, 1, 1, 1, 0, 0, 0, 3, 3, 0, 4, 4, 0, 4, 0, 0, 2, 0, 1, 2, 0, 2, 5, 0, 0, 0, 0, 1, 4, 0, 0, 0, 0, 4, 0, 2, 1, 1, 1, 0, 0, 0, 2, 5, 0, 0, 5, 3, 0, 0, 0, 0, 0, 0, 0, 0, 0, 2, 0, 0, 5, 0, 2, 1, 0, 0, 3, 0, 0, 2, 3, 2, 1, 0, 0, 2, 3, 2, 1, 0, 0, 3, 1, 0, 1, 1, 1, 0, 2, 0, 0, 5, 3, 3, 5, 5, 5, 5, 5, 5, 4, 0, 4, 4, 2, 0, 3, 2, 2, 2, 1, 0, 0, 0, 3, 5, 0, 3, 4, 0, 2, 0, 0, 0, 0, 0, 0, 0, 0, 1
 |0, 3, 3, 0, 0, 1, 3, 2, 2, 5, 0, 0, 4, 3, 0, 2, 2, 1, 4, 0, 2, 0, 0, 2, 0, 0, 2, 2, 0, 2, 0, 0, 0, 0, 0, 0, 2, 1, 1, 0, 3, 3, 0, 3, 2, 2, 0, 0, 0, 0, 0, 3, 2, 0, 5, 0, 3, 3, 0, 2, 0, 2, 0, 4, 0, 0, 0, 0, 0, 0, 1, 0, 0, 1, 0, 2, 2, 0, 4, 3, 0, 0, 0, 0, 4, 0, 4, 2, 0, 1, 4, 2, 0, 0, 0, 2, 3, 0, 0, 0, 1, 1, 0, 0, 0, 3, 0, 1, 5, 0, 5, 5, 0, 5, 0, 0, 1, 0, 4, 0, 0, 0, 0, 0, 2, 0, 2, 1, 0, 5, 0, 5, 0, 0, 3, 5, 4, 4, 5, 0, 0, 4, 0, 3, 4, 4, 2, 0, 3, 0, 0, 0, 0, 0, 0, 1, 4, 3, 3, 4, 4, 0, 4, 4, 3, 2, 0, 0, 2, 2, 0, 0, 0, 0, 3, 3, 3, 0, 0, 2, 0, 0, 2, 0, 3, 2, 0, 4, 0, 0, 1, 0, 0, 1, 1, 4, 4, 0, 0, 2, 2, 4, 2, 0, 5, 0, 0, 0, 0, 3, 4, 4, 0, 0, 4, 3, 0, 0, 1, 4, 3, 3, 4, 3, 3, 2, 2, 0, 4, 3, 0, 5, 0, 0, 4, 4, 0, 5, 5, 0, 0, 0, 0, 2, 2, 0, 0, 0, 0, 1, 1, 0, 0, 2, 0, 0, 0, 2, 0, 1, 1, 0, 0, 0, 0, 0, 0, 0, 0, 0, 0, 2, 0, 0, 0, 3, 0, 0, 0, 0, 0, 3, 4, 4, 0, 0, 3, 0, 0, 1, 0, 5, 2, 1, 5, 3, 2, 4, 4, 0
 |8, 6, 0, 0, 7, 0, 9, 0, 5, 0, 0, 0, 0, 3, 3, 0, 0, 0, 7, 6, 0, 0, 0, 2, 5, 0, 3, 0, 0, 0, 0, 7, 6, 6, 0, 2, 8, 8, 0, 0, 5, 0, 5, 3, 0, 5, 0, 2, 9, 0, 0, 0, 2, 2, 9, 8, 6, 0, 6, 0, 0, 7, 6, 0, 3, 0, 0, 8, 7, 0, 0, 0, 0, 0, 1, 0, 4, 0, 1, 1, 0, 0, 4, 0, 5, 5, 0, 0, 0, 0, 0, 0, 0, 0, 0, 6, 9, 5, 4, 0, 4, 0, 5, 3, 0, 0, 2, 2, 0, 0, 0, 5, 0, 3, 0, 6, 4, 0, 0, 8, 0, 0, 0, 8, 7, 7, 6, 6, 0, 0, 2, 0, 0, 0, 9, 6, 6, 0, 0, 4, 3, 8, 7, 7, 8, 4, 0, 5, 4, 0, 3, 3, 2, 0, 0, 4, 6, 0, 1, 4, 0, 0, 0, 0, 0, 0, 0, 5, 0, 0, 8, 7, 0, 3, 9, 6, 3, 7, 4, 0, 5, 4, 4, 0, 0, 0, 1, 0, 1, 4, 4, 0, 5, 4, 3, 0, 0, 0, 0, 0, 2, 0, 5, 0, 0, 0, 3, 5, 4, 0, 3, 0, 0, 5, 0, 3, 6, 5, 0, 8, 7, 0, 7, 5, 0, 5, 4, 5, 0, 1, 1, 9, 0, 0, 0, 5, 3, 0, 0, 0, 8, 0, 3, 0, 0, 0, 10, 0, 4, 6, 4, 0, 8, 0, 0, 0, 7, 0, 0, 0, 0, 0, 5, 2, 0, 7, 0, 5, 4, 3, 7, 4, 4, 9, 0, 7, 8, 0, 0, 0, 0, 9, 7, 0, 0, 0, 3, 1, 6, 0, 1, 0, 6, 2, 7, 4, 2, 9, 0, 6
 |0, 0, 4, 6, 0, 4, 0, 7, 0, 5, 4, 2, 8, 0, 0, 8, 7, 3, 0, 0, 3, 5, 3, 0, 0, 4, 0, 3, 3, 2, 8, 0, 0, 0, 5, 0, 0, 0, 6, 9, 0, 7, 0, 0, 2, 0, 6, 0, 0, 8, 7, 8, 0, 0, 0, 0, 0, 9, 0, 7, 8, 0, 0, 6, 0, 5, 7, 0, 0, 9, 9, 9, 6, 5, 0, 4, 0, 2, 0, 0, 7, 8, 0, 5, 0, 0, 1, 8, 6, 6, 7, 6, 5, 5, 3, 0, 0, 0, 0, 8, 0, 8, 0, 0, 6, 4, 0, 0, 9, 8, 8, 0, 7, 0, 9, 0, 0, 8, 4, 0, 4, 3, 2, 0, 0, 0, 0, 0, 6, 3, 0, 1, 8, 7, 0, 0, 0, 2, 3, 0, 0, 0, 0, 0, 0, 0, 4, 0, 0, 4, 0, 0, 0, 8, 7, 0, 0, 4, 0, 0, 4, 4, 6, 5, 5, 7, 4, 0, 5, 4, 0, 0, 7, 0, 0, 0, 0, 0, 0, 1, 0, 0, 0, 8, 8, 8, 0, 7, 0, 0, 0, 8, 0, 0, 0, 8, 5, 2, 7, 7, 0, 9, 0, 6, 7, 6, 0, 0, 0, 5, 0, 4, 3, 0, 1, 0, 0, 0, 6, 0, 0, 2, 0, 0, 5, 0, 0, 0, 7, 0, 0, 0, 2, 2, 8, 0, 0, 7, 6, 5, 0, 6, 0, 9, 8, 9, 0, 5, 0, 0, 0, 6, 0, 7, 7, 8, 0, 7, 6, 5, 4, 7, 0, 0, 9, 0, 6, 0, 0, 0, 0, 0, 0, 0, 5, 0, 0, 6, 4, 8, 8, 0, 0, 3, 3, 8, 0, 0, 0, 6, 0, 6, 0, 0, 0, 0, 0, 0, 4, 0|];